inputFile                         : USAIN
toolVersion                       :

<START>
site                              :
structureInpFilePath              :
flangeType                        :
zFlange                           :
diameter                          :
diameterReference                 :
thicknNoseUp                      :
thicknNoseLo                      :
heightNoseUp                      :
heightNoseLo                      :

boltOptions                       :
minNBolts                         :
maxNBolts                         :
minFlangeWidth                    :
maxFlangeWidth                    :
minFlangeThickn                   :
maxFlangeThickn                   :
STEPSIZE_NBOLTS                   : 4
STEPSIZE_WIDTH                    : 1
STEPSIZE_THICKN                   : 1
GLOBAL_MIN_BOLT_DISTANCE          :
GLOBAL_MAX_BOLT_DISTANCE          :
MIN_NUMBER_BOLTS_FRACTION         :
DO_TRIM_DESIGN_SPACE              : true
DO_UPDATE_DESIGN_SPACE            : true
BOLT_DIAMETER_SELECTION           : all

tighteningMethod                  :
TIGHTENING_SIDE_INSTALLATION      :
diamBoltHole                      :
diamBoltCircle                    :
lengthBoltExtender                : 0
NUT_TYPE                          :
TEMP_STAGES_TOOL_TYPE             : normal
TIGHTENING_SIDE_TEMP_STAGES       :
TOOL_DIMENSION_CIRC_DIR           :
TOOL_DIMENSION_RADIAL_DIR         :
CUSTOM_WASHER_DIAM_INNER          :
CUSTOM_WASHER_DIAM_OUTER          :
CUSTOM_WASHER_THICKNESS           :
STEPSIZE_BOLT_EXT_LEN             : 1
B_MIN                             :

DOOR_SEGMENT.DO_INCLUDE           :
DOOR_SEGMENT.THICKNESS            :
DOOR_SEGMENT.MIN_CAN_TO_DOOR_DELTA_THICKNESS :
DOOR_SEGMENT.FACTOR_CAN_TO_DOOR_THICKNESS :

Loads.tag                         :
Loads.flsFilePath                 :
Loads.flsScalingFactor            :
Loads.flsScalingLevel             :
Loads.ulsFilePath                 :
Loads.ulsScalingFactor            :
Loads.ulsScalingLevel             :
Loads.S1FilePath                  :
Loads.S1ScalingFactor             :
Loads.S1ScalingLevel              :
Loads.inclinationValue            :
Loads.inclinationValueFls         :
Loads.inclinationUnit             :
Loads.dlcFilter                   :
Loads.ALIGN_AT                    :
DEAD_WEIGHT                       :
INCLINATION_MOMENT                :
INCLINATION_MOMENT_FLS            :
ULS_BENDING_MOMENT                :
S1_BENDING_MOMENT                 :

countryCode                       : ROW

SECONDARY_HOLES_BCD               :
SECONDARY_HOLES_DIAMETER          :
BEVEL_ANGLE                       : 42
BEVEL_ROOT_FACE                   : 4
FILLET_RADIUS                     : 10
MIN_NOSE_HEIGHT                   : 40
CLEARANCE_FILLET_WELD             : 20
MAX_WELD_BULGE_SIZE               : 5
DO_ALLOW_SWITCH_L_TO_T            : false

TOL_BCD                           : 4
TOL_BCD_TOOL_WALL                 : 4
TOL_FLANGE_WIDTH                  : 2
TOL_FLANGE_THICKNESS_MINUS        : 2
TOL_FLANGE_THICKNESS_PLUS         : 2
TOL_EXTENDER_LENGTH               : 0.5
TOL_FILLET_RADIUS_PLUS            : 1
TOL_BOLT_HOLE                     : 0.5
ALW_UPPER_FLANGE_THICKNESS        : 2
ALW_LOWER_FLANGE_THICKNESS        : 2
RADIUS_SHIFT_SHELL                : 0
RADIUS_SHIFT_FLANGE               : 0

E_BOLT                            : 210
E_FLANGE                          : 210
RHO_FLANGE                        : 7850
FLANGE_STEEL_TYPE                 : S355

PSF_BOLT_RESISTANCE               : 1.25
PSF_BOLT_RESISTANCE_JPN_TAG       :
PSF_BOLT_RESISTANCE_JPN           :
PSF_FAVORABLE_LOADS               : 0.9
PSF_FLANGE_MATERIAL_FLS           : 1.25
PSF_MATERIAL_ULS                  : 1.1
PSF_CMPCLASS2_FLS                 : 1.0
PSF_CMPCLASS2_ULS                 : 1.0

ADDITIONAL_SCF_FLS                : 1.0
ADDITIONAL_SCF_ULS                : 1.0
MACRO_GEOMETRIC_SCF               : 1.0

PLOT_STRESS_TRANSFER_FUNCS        : false
PLOT_STRESS_PATHS                 : false

REACTION_DISTANCE_METHOD          : tobinaga

BoltFls.BOLT_FORCE_MODEL          : schmidtneuper
BoltFls.CUSTOM_PRELOAD            :
BoltFls.PRELOAD_LOSS_FACTOR_FLS   : 0.90
BoltFls.PSF_BOLT_MATERIAL_FLS     : 1.25
BoltFls.SN_CURVE_BOLT             : EC3_DC36*
BoltFls.THICKNESS_EXPONENT_BOLT   : 0.25
BoltFls.TARGET_PM_SUM             : 1.00

FlangeGapping.CUSTOM_PRELOAD      :

SlsPretension.CUSTOM_PRELOAD      :

FlangeNeckScf.CUSTOM_PRELOAD      :
FlangeNeckScf.PRELOAD_LOSS_FACTOR_FLS : 0.90
FlangeNeckScf.TARGET_PM_SUM       : 1.00
FlangeNeckScf.WRITE_INTERMEDIATE_RESULTS : false

MAX_FAILURE_MODE_D_FLS_UTILIZATION : 5/6

SGRE2.BENDING_CONTRIBUTION        :
SGRE2.FLANGE_TILT_UNIT            : deg
SGRE2.FLANGE_TILT_VALUE           : 0
SGRE2.FLATNESS_TOLERANCE          : 1.4
SGRE2.GAP_ANGLE                   : 30 60 90 120
SGRE2.GAP_CLOSE_STIFFNESS_RATIO   : 0.5
SGRE2.INITIAL_POINT_OFFSET        : 0.05
SGRE2.INITIAL_SLOPE_REFERENCE_PRELOAD : 0.5
SGRE2.SHELL_STIFFNESS_METHOD      : interpolated
SGRE2.WRITE_INTERMEDIATE_RESULTS  : true

SN_CURVE_NECK                     : EC3_DC90
DEL_WOHLER_SLOPE                  : 4
DEL_REF_CYCLES                    : 1e7
FDI_COEFFICIENT_A1                : 0.1
FDI_COEFFICIENT_A2                : 0.0003
IGNORE_BOLT_EXTENDER              : true

MIN_GRIPPED_THREAD_LENGTH         : 4P
MIN_VISIBLE_THREAD_LENGTH         : 3P
MAX_VISIBLE_THREAD_LENGTH_TENSION : 1.1D
MAX_VISIBLE_THREAD_LENGTH_TORQUE  : 0.4D

DO_ASSESS_FLS                     : true
DO_ASSESS_ULS                     : true
DO_ASSESS_ULS_JPN                 : false
DO_ASSESS_BOLT_PLASTICITY         : true
DO_ASSESS_FLANGE_PLASTICITY       : true
DO_ASSESS_SLS_PRETENSION          : true
DO_ASSESS_SCHMIDTNEUPER_APT       : true
DO_ASSESS_BOLT_THREAD_REQ         : true
DO_ASSESS_GAPPING                 : true
DO_ASSESS_FLANGE_NECK_SCF         : true

targetDir                         :
runName                           :
DO_SAVE_FULL_FILE                 : false

<END>

% For help, see in Matlab       :
% >> help USAIN
